c instance by G2
c solution = 10011101101001001
c Known solution cost is 842 
p cnf 17 30
w 81 88 92 44 53 42 13 33 88 11 66 86 20 36 23 36 30
-4 6 -5 0
17 2 -6 0
2 -5 -12 0
15 9 -10 0
-8 -9 4 0
4 12 -11 0
16 7 -13 0
7 12 9 0
-11 15 14 0
-15 10 16 0
-17 -2 11 0
-16 15 -17 0
-14 5 15 0
15 16 11 0
14 -16 -3 0
1 -14 10 0
-3 13 -4 0
17 -9 11 0
-1 -2 17 0
11 17 -13 0
13 8 -14 0
13 -16 15 0
-7 -9 10 0
-4 -5 -2 0
7 1 -12 0
5 6 -15 0
-17 -2 -15 0
15 12 6 0
6 13 5 0
16 -10 -14 0
